outputs/case_96.model.txt
shareholding_approval_10_percent = False
shareholding_percentage_post_establishment = 6
pledge_acquired_before_conversion = False
shareholding_percentage_pre_2008 = 4
shareholding_accumulated_change_percentage = 0
shareholding_declared = True
qualified_condition_met = False
shareholding_increased = False
pledge_within_original_term = False
shareholding_approval_25_percent = False
shareholding_approval_50_percent = False
shareholding_approved = False
pledge_to_subsidiary = False
shareholding_percentage_conversion = 9
shareholding_compliance = False
shareholding_violation_no_declaration = False
shareholding_no_increase_if_not_qualified = True
shareholding_declaration_conversion = False
shareholding_approval_required = False
shareholding_declaration_post_establishment_accumulated_change = False
shareholding_pledge_prohibition = True
shareholding_declaration_post_establishment = True
shareholding_declaration_required = True
penalty = False
shareholding_violation_pledge_prohibited = False
shareholding_violation_increase_not_allowed = False
shareholding_violation_unapproved = False
shareholding_declaration_pre_2008 = False